
  17    4
  10   10   10   10

   0   0   0   0   0   5 2 3 4 5 7 
   7  10  10  10  10   4 12 9 8 6 
   3  10  10  10  10   3 12 8 6 
   2  10  10  10  10   3 11 9 6 
  10  10  10  10  10   3 11 9 6 
   9  10  10  10  10   4 16 15 13 10 
   7  10  10  10  10   3 16 11 10 
   3  10  10  10  10   3 15 13 10 
   5  10  10  10  10   1 10 
   3  10  10  10  10   1 14 
   5  10  10  10  10   1 13 
   5  10  10  10  10   1 13 
   2  10  10  10  10   1 17
  10  10  10  10  10   1 17
   1  10  10  10  10   1 17
   4  10  10  10  10   1 17
   0   0   0   0   0   0 
